&GLOBAL
  PROJECT empty_basis_test
  RUN_TYPE ENERGY
&END GLOBAL

&FORCE_EVAL
  METHOD QS
  &DFT
    BASIS_SET_FILE_NAME BASIS_MOLOPT
    POTENTIAL_FILE_NAME GTH_POTENTIALS
    &QS
      EPS_DEFAULT 1.0E-10
    &END QS
    &MGRID
      CUTOFF 400
    &END MGRID
    &XC
      &XC_FUNCTIONAL PBE
      &END XC_FUNCTIONAL
    &END XC
    &SCF
      MAX_SCF 50
      EPS_SCF 1.0E-6
      &OT
        MINIMIZER DIIS
        PRECONDITIONER FULL_ALL
      &END OT
    &END SCF
  &END DFT
  &SUBSYS
    &CELL
      ABC 10.0 10.0 10.0
    &END CELL
    &COORD
      N   5.0 5.0 5.0
      H   5.8 5.0 5.0
      H   4.6 5.8 5.0
      H   4.6 4.6 5.8
    &END COORD
    &KIND N
      BASIS_SET
      POTENTIAL GTH-PBE-q5
    &END KIND
    &KIND H
      BASIS_SET DZVP-MOLOPT-SR-GTH
      POTENTIAL GTH-PBE-q1
    &END KIND
  &END SUBSYS
&END FORCE_EVAL