&GLOBAL
  PROJECT md_test
  RUN_TYPE MD
&END GLOBAL

&FORCE_EVAL
  METHOD QS
  &DFT
    BASIS_SET_FILE_NAME BASIS_MOLOPT
    POTENTIAL_FILE_NAME GTH_POTENTIALS
    &MGRID
      CUTOFF 400
    &END MGRID
    &QS
      EPS_DEFAULT 1.0E-10
    &END QS
    &SCF
      MAX_SCF 50
      EPS_SCF 1.0E-6
      &OT
        MINIMIZER DIIS
        PRECONDITIONER FULL_SINGLE_INVERSE
      &END OT
    &END SCF
    &XC
      &XC_FUNCTIONAL PBE
      &END XC_FUNCTIONAL
    &END XC
  &END DFT
  &SUBSYS
    &CELL
      ABC 10.0 10.0 10.0
      PERIODIC NONE
    &END CELL
    &COORD
      H   0.0  0.0  0.0
      H   0.0  0.0  0.74
      C   2.0  2.0  2.0
      C   3.0  2.0  2.0
    &END COORD
    &KIND H
      POTENTIAL GTH-PBE-q1
    &END KIND
    &KIND C
      BASIS_SET
      POTENTIAL GTH-PBE-q4
    &END KIND
    &TOPOLOGY
      &CENTER_COORDINATES
      &END CENTER_COORDINATES
    &END TOPOLOGY
  &END SUBSYS
&END FORCE_EVAL

&MOTION
  &MD
    ENSEMBLE NVE
    STEPS 100
    TIMESTEP 0.5
    TEMPERATURE 300.0
  &END MD
&END MOTION