&GLOBAL
  PROJECT missing_basis_set_test
  RUN_TYPE MD
  PRINT_LEVEL MEDIUM
&END GLOBAL

&FORCE_EVAL
  METHOD QS
  
  &DFT
    BASIS_SET_FILE_NAME BASIS_MOLOPT
    POTENTIAL_FILE_NAME GTH_POTENTIALS
    
    &MGRID
      CUTOFF 400
      REL_CUTOFF 50
    &END MGRID
    
    &QS
      METHOD GPW
      EPS_DEFAULT 1.0E-10
    &END QS
    
    &SCF
      MAX_SCF 50
      EPS_SCF 1.0E-6
      SCF_GUESS ATOMIC
      
      &OT
        MINIMIZER DIIS
        PRECONDITIONER FULL_SINGLE_INVERSE
      &END OT
    &END SCF
    
    &XC
      &XC_FUNCTIONAL PBE
      &END XC_FUNCTIONAL
    &END XC
  &END DFT
  
  &SUBSYS
    &CELL
      ABC 10.0 10.0 10.0
      PERIODIC NONE
    &END CELL
    
    &COORD
      C  0.0 0.0 0.0
      H  1.0 0.0 0.0
      H  0.0 1.0 0.0
      H  0.0 0.0 1.0
      H  1.0 1.0 1.0
    &END COORD
    
    &KIND C
      POTENTIAL GTH-PBE-q4
    &END KIND
    
    &KIND H
      BASIS_SET DZVP-MOLOPT-SR-GTH
      POTENTIAL GTH-PBE-q1
    &END KIND
    
    &TOPOLOGY
      COORD_FILE_FORMAT XYZ
      COORD_FILE_NAME input.xyz
    &END TOPOLOGY
  &END SUBSYS
&END FORCE_EVAL

&MOTION
  &MD
    ENSEMBLE NVE
    STEPS 1000
    TIMESTEP 0.5
    TEMPERATURE 300.0
  &END MD
&END MOTION