&GLOBAL
  PROJECT water_simulation
  RUN_TYPE MD
  PRINT_LEVEL MEDIUM
&END GLOBAL

&FORCE_EVAL
  METHOD QS
  &DFT
    BASIS_SET_FILE_NAME BASIS_MOLOPT
    POTENTIAL_FILE_NAME GTH_POTENTIALS
    &MGRID
      CUTOFF 400
      REL_CUTOFF 50
    &END MGRID
    &QS
      EPS_DEFAULT 1.0E-10
    &END QS
    &SCF
      SCF_GUESS ATOMIC
      EPS_SCF 1.0E-6
      MAX_SCF 50
      &OT
        MINIMIZER DIIS
        PRECONDITIONER FULL_SINGLE_INVERSE
      &END OT
    &END SCF
    &XC
      &XC_FUNCTIONAL PBE
      &END XC_FUNCTIONAL
    &END XC
  &END DFT
  
  &SUBSYS
    &CELL
      ABC 10.0 10.0 10.0
      PERIODIC XYZ
    &END CELL
    
    &KIND H
      BASIS_SET DZVP-MOLOPT-SR-GTH
      POTENTIAL GTH-PBE-q1
    &END KIND
    
    &KIND C
      POTENTIAL GTH-PBE-q4
    &END KIND
    
    &KIND O
      BASIS_SET
      POTENTIAL GTH-PBE-q6
    &END KIND
    
    &COORD
      H  0.0  0.0  0.0
      H  1.0  0.0  0.0
      C  2.0  0.0  0.0
      O  3.0  0.0  0.0
    &END COORD
    
    &KIND H
      BASIS_SET TZV2P-MOLOPT-GTH
      POTENTIAL GTH-PBE-q1
    &END KIND
    
  &END SUBSYS
  
&END FORCE_EVAL

&MOTION
  &MD
    ENSEMBLE NVT
    STEPS 1000
    TIMESTEP 0.5
    TEMPERATURE 300.0
    &THERMOSTAT
      TYPE NOSE
      &NOSE
        LENGTH 3
        YOSHIDA 3
        TIMECON 100.0
        MTS 2
      &END NOSE
    &END THERMOSTAT
  &END MD
&END MOTION