&GLOBAL
  PROJECT silicon_bulk
  RUN_TYPE ENERGY
  PRINT_LEVEL MEDIUM
&END GLOBAL

&FORCE_EVAL
  METHOD QS
  
  &DFT
    BASIS_SET_FILE_NAME BASIS_MOLOPT
    POTENTIAL_FILE_NAME GTH_POTENTIALS
    
    &MGRID
      CUTOFF 400
      REL_CUTOFF 60
    &END MGRID
    
    &QS
      EPS_DEFAULT 1.0E-10
    &END QS
    
    &SCF
      SCF_GUESS ATOMIC
      EPS_SCF 1.0E-6
      MAX_SCF 50
      
      &OT
        MINIMIZER DIIS
        PRECONDITIONER FULL_SINGLE_INVERSE
      &END OT
    &END SCF
    
    &XC
      &XC_FUNCTIONAL PBE
      &END XC_FUNCTIONAL
    &END XC
  &END DFT
  
  &SUBSYS
    &CELL
      ABC 5.43 5.43 5.43
      ALPHA_BETA_GAMMA 90.0 90.0 90.0
    &END CELL
    
    &COORD
      Si  0.0  0.0  0.0
      Si  1.3575  1.3575  1.3575
      Si  2.715  2.715  0.0
      Si  4.0725  4.0725  1.3575
      Si  2.715  0.0  2.715
      Si  4.0725  1.3575  4.0725
      Si  0.0  2.715  2.715
      Si  1.3575  4.0725  4.0725
    &END COORD
    
    &KIND Si
      BASIS_SET DZVP-MOLOPT-SR-GTH
      POTENTIAL GTH-PBE-q4
    &END KIND
    
  &END SUBSYS
  
&END FORCE_EVAL