&GLOBAL
  PROJECT complex_molecule
  RUN_TYPE MD
  PRINT_LEVEL MEDIUM
&END GLOBAL

&FORCE_EVAL
  METHOD QS
  &DFT
    BASIS_SET_FILE_NAME BASIS_MOLOPT
    POTENTIAL_FILE_NAME GTH_POTENTIALS
    &MGRID
      CUTOFF 400
      REL_CUTOFF 50
    &END MGRID
    &QS
      EPS_DEFAULT 1.0E-10
    &END QS
    &SCF
      SCF_GUESS ATOMIC
      EPS_SCF 1.0E-6
      MAX_SCF 100
      &OT
        MINIMIZER DIIS
        PRECONDITIONER FULL_ALL
      &END OT
    &END SCF
    &XC
      &XC_FUNCTIONAL PBE
      &END XC_FUNCTIONAL
    &END XC
  &END DFT
  
  &SUBSYS
    &CELL
      ABC 15.0 15.0 15.0
      PERIODIC NONE
    &END CELL
    
    &COORD
      H    0.000000    0.000000    0.000000
      C    1.100000    0.000000    0.000000
      N    2.200000    0.000000    0.000000
      O    3.300000    0.000000    0.000000
      H    1.100000    1.090000    0.000000
      H    1.100000   -0.545000    0.943000
    &END COORD
    
    &KIND H
      BASIS_SET TZV2P-MOLOPT-GTH
      POTENTIAL GTH-PBE-q1
    &END KIND
    
    &KIND C
      BASIS_SET TZV2P-MOLOPT-GTH
      POTENTIAL GTH-PBE-q4
    &END KIND
    
    &KIND N
      BASIS_SET TZV2P-MOLOPT-GTH
      POTENTIAL GTH-PBE-q5
    &END KIND
    
    &KIND O
      BASIS_SET TZV2P-MOLOPT-GTH
      POTENTIAL GTH-PBE-q6
    &END KIND
    
    &TOPOLOGY
      CONNECTIVITY OFF
    &END TOPOLOGY
  &END SUBSYS
  
&END FORCE_EVAL

&MOTION
  &MD
    ENSEMBLE NVT
    STEPS 1000
    TIMESTEP 0.5
    TEMPERATURE 300.0
    &THERMOSTAT
      TYPE NOSE
      &NOSE
        TIMECON 100.0
      &END NOSE
    &END THERMOSTAT
  &END MD
&END MOTION