%chk=checkpoint.chk
%mem=2GB
#P UB3LYP/6-31G(d) SCF=Tight

Chromium Complex SCF Test

0 4
Cr 0.000000 0.000000 0.000000
N 2.080000 0.000000 0.000000
N -2.080000 0.000000 0.000000
N 0.000000 2.080000 0.000000
N 0.000000 -2.080000 0.000000
O 0.000000 0.000000 1.950000
O 0.000000 0.000000 -1.950000
C 3.200000 0.000000 0.850000
C 3.200000 0.000000 -0.850000
H 3.800000 0.900000 1.200000
H 3.800000 -0.900000 1.200000
H 3.800000 0.900000 -1.200000
H 3.800000 -0.900000 -1.200000
C -3.200000 0.000000 0.850000
C -3.200000 0.000000 -0.850000
H -3.800000 0.900000 1.200000
H -3.800000 -0.900000 1.200000
H -3.800000 0.900000 -1.200000
H -3.800000 -0.900000 -1.200000
C 0.850000 3.200000 0.000000
C -0.850000 3.200000 0.000000
H 1.200000 3.800000 0.900000
H 1.200000 3.800000 -0.900000
H -1.200000 3.800000 0.900000
H -1.200000 3.800000 -0.900000
C 0.850000 -3.200000 0.000000
C -0.850000 -3.200000 0.000000
H 1.200000 -3.800000 0.900000
H 1.200000 -3.800000 -0.900000
H -1.200000 -3.800000 0.900000
H -1.200000 -3.800000 -0.900000