$molecule
0 1
C    0.000000    0.000000    0.000000
O    0.000000    0.000000    1.220000
C    1.520000    0.000000   -0.520000
H    1.900000    0.890000   -0.900000
H    1.900000   -0.890000   -0.900000
H    2.000000    0.000000    0.450000
C   -1.520000    0.000000   -0.520000
H   -1.900000    0.890000   -0.900000
H   -1.900000   -0.890000   -0.900000
H   -2.000000    0.000000    0.450000
$end

$rem
JOBTYPE = OPT
METHOD = B3LYP
BASIS = 6-31G(d)
$end