$molecule
0 1
C    0.000000    1.396000    0.000000
C    1.209000    0.698000    0.000000
C    1.209000   -0.698000    0.000000
C    0.000000   -1.396000    0.000000
C   -1.209000   -0.698000    0.000000
C   -1.209000    0.698000    0.000000
H    0.000000    2.480000    0.000000
H    2.148000    1.240000    0.000000
H    2.148000   -1.240000    0.000000
H    0.000000   -2.480000    0.000000
H   -2.148000   -1.240000    0.000000
H   -2.148000    1.240000    0.000000
$end

$rem
JOBTYPE = OPT
METHOD = B3LYP
BASIS = 6-31G(d)
$end