$molecule
0 1
C    0.000000    0.000000    0.000000
O    0.000000    0.000000    1.430000
H    1.027000    0.000000   -0.363000
H   -0.513500   -0.889165   -0.363000
H   -0.513500    0.889165   -0.363000
H   -0.940000    0.000000    1.690000
$end

$rem
JOBTYPE = OPT
METHOD = B3LYP
BASIS = 6-31G(d)
$end