$molecule
0 1
C    0.000000    1.396000    0.000000
C    1.209000    0.698000    0.000000
C    1.209000   -0.698000    0.000000
C    0.000000   -1.396000    0.000000
C   -1.209000   -0.698000    0.000000
C   -1.209000    0.698000    0.000000
H    0.000000    2.484000    0.000000
H    2.151000    1.242000    0.000000
H    2.151000   -1.242000    0.000000
H    0.000000   -2.484000    0.000000
H   -2.151000   -1.242000    0.000000
H   -2.151000    1.242000    0.000000
$end

$rem
job_type = sp
method = M06-2X
basis = def2-TZVP
solvent_method = pcm
$end

$pcm
theory = cpcm
radii = bondi
$end

$solvent
dielectric = 78.39
$end