$molecule
-1 1
C       0.000000    0.000000    0.000000
O       1.210000    0.000000    0.000000
O      -0.605000    1.047000    0.000000
H      -0.605000   -0.871000    0.000000
$end

$rem
job_type = opt
method = B3LYP
basis = 6-31+G(d,p)
max_scf_cycles = 100
$end

$pcm
theory = cpcm
dielectric_const = 78.39
$end

$solvent
solvent_method = pcm
$end