$molecule
0 1
C        0.000000    1.396000    0.000000
C        1.209000    0.698000    0.000000
C        1.209000   -0.698000    0.000000
C        0.000000   -1.396000    0.000000
C       -1.209000   -0.698000    0.000000
C       -1.209000    0.698000    0.000000
H        0.000000    2.481000    0.000000
H        2.149000    1.241000    0.000000
H        2.149000   -1.241000    0.000000
H        0.000000   -2.481000    0.000000
H       -2.149000   -1.241000    0.000000
H       -2.149000    1.241000    0.000000
$end

$rem
job_type = opt
method = M06-2X
basis = 6-311G(d,p)
max_scf_cycles = 200
scf_convergence = 8
solvent_method = pcm
$end

$solvent
dielectric 35.69
$end