$molecule
0 1
C        0.000000    0.000000    0.000000
C        1.520000    0.000000    0.000000
O        2.150000    1.050000    0.000000
O        2.080000   -1.240000    0.000000
H       -0.390000    0.510000    0.890000
H       -0.390000    0.510000   -0.890000
H       -0.390000   -1.020000    0.000000
H        3.040000   -1.150000    0.000000
$end

$rem
job_type = opt
method = wB97X-D
basis = 6-31G(d)
solvent_method = pcm
$end

$pcm
theory = cpcm
solvent = hexane
$end

$solvent
dielectric = 1.88
$end