$molecule
0 1
C        0.000000    0.000000    0.000000
O        1.420000    0.000000    0.000000
H       -0.383333   -0.884333    0.513333
H       -0.383333    0.884333    0.513333
H       -0.383333    0.000000   -1.026667
H        1.783333    0.000000    0.916667
$end

$rem
job_type = opt
method = B3LYP
basis = 6-31G(d)
max_scf_cycles = 100
scf_convergence = 8
$end

$pcm
theory = cpcm
$end

$solvent
dielectric = 35.69
$end