$molecule
-1 1
C     0.000000    0.000000    0.000000
O     1.220000    0.000000    0.000000
O    -0.610000    1.057000    0.000000
H    -0.610000   -0.942000    0.000000
$end

$rem
job_type = freq
method = B3LYP
basis = 6-31+G(d,p)
scf_convergence = 8
xc_grid = 000075000302
solvent_method = pcm
$end

$pcm
theory = cpcm
radii = bondi
$end

$solvent
dielectric = 78.39
$end