$molecule
0 1
C        0.000000    0.000000    0.000000
C        1.520000    0.000000    0.000000
O        2.180000    1.020000    0.000000
O        2.080000   -1.250000    0.000000
H       -0.400000    0.510000    0.880000
H       -0.400000    0.510000   -0.880000
H       -0.400000   -1.020000    0.000000
H        3.050000   -1.200000    0.000000
$end

$rem
job_type = freq
method = B3LYP
basis = 6-31+G(d,p)
$end