$molecule
0 1
C       0.000000    0.000000    0.000000
O       0.000000    0.000000    1.425000
H       1.028000    0.000000   -0.364000
H      -0.514000    0.890000   -0.364000
H      -0.514000   -0.890000   -0.364000
H      -0.762000    0.000000    1.955000
$end

$rem
job_type = sp
method = B3LYP
basis = 6-31G(d)
solvent_method = pcm
$end

$pcm
theory = cpcm
dielectric = 78.39
$end